*SENSE:Minimize
NAME          The_mineral_collocation_problem
ROWS
 N  OBJ
 L  TFe_upper
 G  TFe_lower
 L  SiO2_upper
 G  SiO2_lower
 L  Al2O3_upper
 G  Al2O3_lower
 L  MgO_upper
 G  MgO_lower
 L  FeO_upper
 G  FeO_lower
 L  ZnO_upper
 G  ZnO_lower
 L  main_ratio_upper
 G  main_ratio_lower
 E  _C1
COLUMNS
    Ingr_A1   SiO2_upper   2.789431908380e+00
    Ingr_A1   SiO2_lower   2.789431908380e+00
    Ingr_A1   MgO_upper   8.658578070076e+01
    Ingr_A1   MgO_lower   8.658578070076e+01
    Ingr_A1   OBJ        2.320500000000e+01
    Ingr_A2   SiO2_upper   8.434014869888e+00
    Ingr_A2   SiO2_lower   8.434014869888e+00
    Ingr_A2   MgO_upper   3.252788104089e+00
    Ingr_A2   MgO_lower   3.252788104089e+00
    Ingr_A2   OBJ        2.745000000000e+00
    Ingr_B    TFe_upper   1.188811188811e-02
    Ingr_B    TFe_lower   1.188811188811e-02
    Ingr_B    SiO2_upper   5.293706293706e+01
    Ingr_B    SiO2_lower   5.293706293706e+01
    Ingr_B    Al2O3_upper   3.517482517483e+01
    Ingr_B    Al2O3_lower   3.517482517483e+01
    Ingr_B    MgO_upper   2.237762237762e+00
    Ingr_B    MgO_lower   2.237762237762e+00
    Ingr_B    OBJ        2.565400000000e+01
    Ingr_C    TFe_upper   5.529000000000e+01
    Ingr_C    TFe_lower   5.529000000000e+01
    Ingr_C    SiO2_upper   6.080000000000e+00
    Ingr_C    SiO2_lower   6.080000000000e+00
    Ingr_C    Al2O3_upper   1.970000000000e+00
    Ingr_C    Al2O3_lower   1.970000000000e+00
    Ingr_C    MgO_upper   1.810000000000e+00
    Ingr_C    MgO_lower   1.810000000000e+00
    Ingr_C    _C1        1.000000000000e+00
    Ingr_C    OBJ        7.140000000000e+01
    Ingr_H    TFe_upper   5.567000000000e+01
    Ingr_H    TFe_lower   5.567000000000e+01
    Ingr_H    SiO2_upper   5.820000000000e+00
    Ingr_H    SiO2_lower   5.820000000000e+00
    Ingr_H    Al2O3_upper   1.900000000000e+00
    Ingr_H    Al2O3_lower   1.900000000000e+00
    Ingr_H    MgO_upper   1.750000000000e+00
    Ingr_H    MgO_lower   1.750000000000e+00
    Ingr_H    _C1        1.000000000000e+00
    Ingr_H    OBJ        7.650000000000e+01
    Ingr_J    TFe_upper   9.756097560976e-03
    Ingr_J    TFe_lower   9.756097560976e-03
    Ingr_J    SiO2_upper   6.073170731707e+01
    Ingr_J    SiO2_lower   6.073170731707e+01
    Ingr_J    Al2O3_upper   4.252032520325e+01
    Ingr_J    Al2O3_lower   4.252032520325e+01
    Ingr_J    MgO_upper   1.788617886179e+00
    Ingr_J    MgO_lower   1.788617886179e+00
    Ingr_J    OBJ        2.465400000000e+01
    Ingr_M0   TFe_upper   6.453186300498e+01
    Ingr_M0   TFe_lower   6.453186300498e+01
    Ingr_M0   SiO2_upper   4.994168168805e+00
    Ingr_M0   SiO2_lower   4.994168168805e+00
    Ingr_M0   Al2O3_upper   2.608419043580e+00
    Ingr_M0   Al2O3_lower   2.608419043580e+00
    Ingr_M0   MgO_upper   7.422330611812e-02
    Ingr_M0   MgO_lower   7.422330611812e-02
    Ingr_M0   main_ratio_upper   1.000000000000e+00
    Ingr_M0   main_ratio_lower   1.000000000000e+00
    Ingr_M0   _C1        1.000000000000e+00
    Ingr_M0   OBJ        8.281200000000e+02
    Ingr_M1   TFe_upper   6.548921537981e+01
    Ingr_M1   TFe_lower   6.548921537981e+01
    Ingr_M1   SiO2_upper   3.897051161821e+00
    Ingr_M1   SiO2_lower   3.897051161821e+00
    Ingr_M1   Al2O3_upper   2.386162342399e+00
    Ingr_M1   Al2O3_lower   2.386162342399e+00
    Ingr_M1   MgO_upper   9.482129832239e-02
    Ingr_M1   MgO_lower   9.482129832239e-02
    Ingr_M1   main_ratio_upper   1.000000000000e+00
    Ingr_M1   main_ratio_lower   1.000000000000e+00
    Ingr_M1   _C1        1.000000000000e+00
    Ingr_M1   OBJ        8.460400000000e+02
    Ingr_M2   TFe_upper   6.115259228100e+01
    Ingr_M2   TFe_lower   6.115259228100e+01
    Ingr_M2   SiO2_upper   5.542117993480e+00
    Ingr_M2   SiO2_lower   5.542117993480e+00
    Ingr_M2   Al2O3_upper   6.793563992008e+00
    Ingr_M2   Al2O3_lower   6.793563992008e+00
    Ingr_M2   MgO_upper   5.258176464402e-02
    Ingr_M2   MgO_lower   5.258176464402e-02
    Ingr_M2   main_ratio_upper   1.000000000000e+00
    Ingr_M2   main_ratio_lower   1.000000000000e+00
    Ingr_M2   _C1        1.000000000000e+00
    Ingr_M2   OBJ        7.525900000000e+02
    Ingr_Z    TFe_upper   5.322000000000e+01
    Ingr_Z    TFe_lower   5.322000000000e+01
    Ingr_Z    SiO2_upper   7.270000000000e+00
    Ingr_Z    SiO2_lower   7.270000000000e+00
    Ingr_Z    Al2O3_upper   2.040000000000e+00
    Ingr_Z    Al2O3_lower   2.040000000000e+00
    Ingr_Z    MgO_upper   3.190000000000e+00
    Ingr_Z    MgO_lower   3.190000000000e+00
    Ingr_Z    _C1        1.000000000000e+00
    Ingr_Z    OBJ        3.465000000000e+01
RHS
    RHS       TFe_upper   6.000000000000e+01
    RHS       TFe_lower   5.600000000000e+01
    RHS       SiO2_upper   5.300000000000e+00
    RHS       SiO2_lower   4.700000000000e+00
    RHS       Al2O3_upper   2.100000000000e+00
    RHS       Al2O3_lower   1.000000000000e+00
    RHS       MgO_upper   1.800000000000e+00
    RHS       MgO_lower   1.400000000000e+00
    RHS       FeO_upper   8.500000000000e+00
    RHS       FeO_lower   7.500000000000e+00
    RHS       ZnO_upper   1.000000000000e-01
    RHS       ZnO_lower   0.000000000000e+00
    RHS       main_ratio_upper   7.000000000000e+01
    RHS       main_ratio_lower   5.000000000000e+01
    RHS       _C1        1.000000000000e+02
BOUNDS
 UP BND       Ingr_A1    1.000000000000e+00
 UP BND       Ingr_A2    1.000000000000e+00
 UP BND       Ingr_B     1.000000000000e+00
 UP BND       Ingr_C     1.000000000000e+00
 UP BND       Ingr_H     1.000000000000e+00
 UP BND       Ingr_J     1.000000000000e+00
 UP BND       Ingr_M0    1.000000000000e+00
 UP BND       Ingr_M1    1.000000000000e+00
 UP BND       Ingr_M2    1.000000000000e+00
 UP BND       Ingr_Z     1.000000000000e+00
ENDATA
